p cnf 162 565
1 -2 0
2 -1 0
3 -4 0
4 -3 0
5 -6 0
6 -5 0
7 -8 0
8 -7 0
9 -10 0
10 -9 0
11 -12 0
12 -11 0
13 -14 0
14 -13 0
15 -16 0
16 -15 0
17 -18 0
18 -17 0
19 -20 0
20 -19 0
21 -22 0
22 -21 0
23 -24 0
24 -23 0
25 -26 0
26 -25 0
27 -28 0
28 -27 0
29 -30 0
30 -29 0
31 -32 0
32 -31 0
33 -34 0
34 -33 0
35 -36 0
36 -35 0
37 -38 0
38 -37 0
39 -40 0
40 -39 0
41 -42 0
42 -41 0
43 -44 0
44 -43 0
45 -46 0
46 -45 0
47 -48 0
48 -47 0
49 -50 0
50 -49 0
51 -52 0
52 -51 0
53 -54 0
54 -53 0
19 55 0
1 55 0
-19 -1 -55 0
21 56 0
-55 56 0
55 -56 -21 0
3 57 0
21 57 0
-3 -21 -57 0
3 58 0
-55 58 0
-3 55 -58 0
23 59 0
-57 59 -56 -58 0
-23 -59 58 0
-23 57 -59 0
-23 56 -59 0
23 60 0
5 60 0
-60 -23 -5 0
5 61 0
61 -57 -56 -58 0
-61 -5 58 0
-61 57 -5 0
-61 -5 56 0
25 62 0
-61 -60 62 -59 0
61 -62 -25 0
60 -62 -25 0
59 -62 -25 0
7 63 0
-61 -60 63 -59 0
61 -63 -7 0
60 -63 -7 0
59 -63 -7 0
7 64 0
25 64 0
-7 -25 -64 0
9 65 0
-64 -63 65 -62 0
64 -9 -65 0
63 -9 -65 0
-9 62 -65 0
9 66 0
27 66 0
-9 -27 -66 0
27 67 0
67 -64 -63 -62 0
64 -67 -27 0
63 -67 -27 0
62 -67 -27 0
29 68 0
-66 68 -67 -65 0
-29 67 -68 0
66 -29 -68 0
-29 -68 65 0
29 69 0
11 69 0
-69 -29 -11 0
11 70 0
-66 70 -67 -65 0
67 -70 -11 0
66 -70 -11 0
-70 -11 65 0
31 71 0
-69 71 -70 -68 0
70 -31 -71 0
69 -31 -71 0
-31 -71 68 0
13 72 0
-69 72 -70 -68 0
-72 70 -13 0
69 -72 -13 0
-72 -13 68 0
31 73 0
13 73 0
-31 -73 -13 0
15 74 0
-72 -73 -71 74 0
-74 -15 73 0
72 -74 -15 0
71 -74 -15 0
33 75 0
-72 -73 -71 75 0
-75 -33 73 0
72 -75 -33 0
71 -75 -33 0
33 76 0
15 76 0
-76 -33 -15 0
-17 76 0
-17 75 0
-17 74 0
19 -1 -77 0
1 -19 -77 0
-19 -1 77 0
1 19 77 0
-77 0
33 78 0
51 78 0
-33 -51 -78 0
45 79 0
27 79 0
-79 -45 -27 0
23 80 0
41 80 0
-23 -41 -80 0
19 81 0
37 81 0
-19 -37 -81 0
21 82 0
82 -81 0
81 -82 -21 0
39 83 0
21 83 0
-83 -39 -21 0
39 84 0
84 -81 0
-84 81 -39 0
23 85 0
-84 -83 85 -82 0
84 -23 -85 0
-23 -85 83 0
-23 -85 82 0
41 86 0
-84 -83 86 -82 0
84 -86 -41 0
-86 83 -41 0
82 -86 -41 0
25 87 0
-85 -86 -80 87 0
86 -87 -25 0
85 -87 -25 0
-87 80 -25 0
43 88 0
25 88 0
-43 -88 -25 0
43 89 0
89 -85 -86 -80 0
-89 86 -43 0
-89 -43 85 0
-89 -43 80 0
27 90 0
90 -89 -87 -88 0
89 -90 -27 0
88 -90 -27 0
-90 87 -27 0
45 91 0
-89 91 -87 -88 0
-91 89 -45 0
-91 88 -45 0
-91 -45 87 0
47 92 0
-79 -91 92 -90 0
-92 91 -47 0
90 -92 -47 0
79 -92 -47 0
29 93 0
-79 -91 93 -90 0
-29 91 -93 0
90 -29 -93 0
79 -29 -93 0
29 94 0
47 94 0
-29 -47 -94 0
31 95 0
95 -92 -94 -93 0
-31 -95 94 0
93 -31 -95 0
-31 92 -95 0
49 96 0
-92 96 -94 -93 0
-49 94 -96 0
93 -49 -96 0
92 -49 -96 0
31 97 0
49 97 0
-31 -49 -97 0
51 98 0
-95 98 -96 -97 0
-98 97 -51 0
-98 96 -51 0
95 -98 -51 0
33 99 0
99 -95 -96 -97 0
-99 97 -33 0
-99 96 -33 0
95 -99 -33 0
99 -53 0
-53 98 0
78 -53 0
100 -39 0
100 -37 0
39 -100 37 0
101 -41 0
101 -100 0
41 100 -101 0
-102 101 -43 0
-102 43 -101 0
102 -43 -101 0
102 101 43 0
100 -103 -41 0
-100 -103 41 0
103 -100 -41 0
103 100 41 0
100 -104 -41 0
-100 -104 41 0
-100 104 -41 0
104 100 41 0
101 -105 -43 0
-105 43 -101 0
105 -43 -101 0
105 101 43 0
105 104 106 0
104 106 0
105 106 0
-106 -105 -104 0
107 -43 0
107 -101 0
43 101 -107 0
107 -108 -45 0
45 -108 -107 0
108 -45 -107 0
45 108 107 0
27 108 -109 106 0
-106 108 -109 -27 0
-108 -109 -27 106 0
27 -106 -108 -109 0
-106 109 -108 -27 0
27 109 -108 106 0
27 -106 108 109 0
108 109 -27 106 0
-109 0
-17 0
-35 0
-53 0
76 -35 0
75 -35 0
74 -35 0
-17 -35 0
19 -110 -21 0
-19 21 -110 0
110 -19 -21 0
19 110 21 0
19 -111 -21 0
-19 -111 21 0
111 -19 -21 0
19 111 21 0
-19 112 0
-19 111 112 0
111 112 0
19 -111 -112 0
-19 113 0
113 -21 0
19 21 -113 0
-114 -23 113 0
-114 23 -113 0
-23 114 -113 0
23 113 114 0
112 114 -115 5 0
-5 114 -115 -112 0
-114 -5 112 -115 0
-114 -115 -112 5 0
-114 115 -5 -112 0
-114 115 112 5 0
115 114 -112 5 0
115 -5 112 114 0
-115 0
3 19 111 -116 0
-3 -19 111 -116 0
19 -3 -111 -116 0
3 -19 -111 -116 0
-3 -19 -111 116 0
3 19 -111 116 0
3 -19 111 116 0
19 -3 111 116 0
-116 0
-23 117 0
117 -113 0
23 113 -117 0
118 -25 0
118 -117 0
25 117 -118 0
119 -27 0
119 -118 0
27 118 -119 0
119 -120 -29 0
-120 29 -119 0
-29 120 -119 0
119 120 29 0
121 114 -112 0
114 121 0
121 -112 0
-114 112 -121 0
-122 117 -25 0
-122 -117 25 0
-117 122 -25 0
117 122 25 0
123 114 -112 0
114 123 0
123 -112 0
-114 -123 112 0
117 -124 -25 0
-117 -124 25 0
-117 124 -25 0
117 25 124 0
-123 125 124 0
124 125 0
-123 125 0
-124 123 -125 0
118 -126 -27 0
27 -126 -118 0
126 -118 -27 0
27 126 118 0
127 -126 0
125 127 0
126 -125 -127 0
127 120 -128 11 0
-120 127 -11 -128 0
-127 120 -11 -128 0
-120 -127 -128 11 0
-120 128 -127 -11 0
128 -127 120 11 0
-120 127 128 11 0
127 128 120 -11 0
-128 0
-129 123 7 124 0
-123 -7 -129 124 0
-7 -129 -124 123 0
-123 -129 -124 7 0
-123 -7 129 -124 0
129 -124 123 7 0
-123 129 7 124 0
-7 129 123 124 0
-129 0
-29 130 0
130 -119 0
29 119 -130 0
-131 -31 130 0
-131 31 -130 0
131 -31 -130 0
131 130 31 0
-120 132 0
-127 132 0
120 127 -132 0
131 -133 13 132 0
-131 -133 -13 132 0
-132 131 -133 -13 0
-131 -132 -133 13 0
-131 -132 -13 133 0
-132 131 13 133 0
-131 13 133 132 0
131 -13 133 132 0
-133 0
134 -31 0
134 -130 0
31 130 -134 0
134 -135 -33 0
-135 33 -134 0
135 -33 -134 0
134 135 33 0
136 -131 0
136 -132 0
131 132 -136 0
136 135 -137 15 0
-135 136 -137 -15 0
-136 135 -137 -15 0
-135 -136 -137 15 0
-135 -136 137 -15 0
-136 135 137 15 0
-135 136 137 15 0
136 135 137 -15 0
-137 0
126 125 9 0
9 -126 -125 0
126 -9 -125 0
125 -9 -126 0
138 -33 0
138 -134 0
33 134 -138 0
138 -139 -35 0
-138 -139 35 0
139 -138 -35 0
138 139 35 0
-135 140 0
-136 140 0
135 136 -140 0
139 140 17 0
-139 17 -140 0
-17 -139 140 0
-17 139 -140 0
-53 -35 0
99 -35 0
98 -35 0
78 -35 0
141 -45 0
141 -107 0
45 107 -141 0
142 -47 0
142 -141 0
47 141 -142 0
142 -49 -143 0
49 -143 -142 0
143 -49 -142 0
142 143 49 0
142 -144 -49 0
-144 49 -142 0
144 -49 -142 0
142 144 49 0
-106 108 145 0
108 145 0
-106 145 0
-108 -145 106 0
141 -47 -146 0
47 -141 -146 0
146 -47 -141 0
146 141 47 0
-106 108 147 0
108 147 0
-106 147 0
-108 106 -147 0
141 -47 -148 0
47 -141 -148 0
148 -47 -141 0
141 148 47 0
148 149 0
149 -147 0
148 149 -147 0
-149 -148 147 0
148 150 0
150 -147 0
150 148 -147 0
-150 -148 147 0
-150 151 0
144 -150 151 0
144 151 0
-151 150 -144 0
152 -49 0
152 -142 0
49 142 -152 0
152 -153 -51 0
51 -152 -153 0
-152 153 -51 0
51 152 153 0
-150 154 0
144 -150 154 0
144 154 0
150 -144 -154 0
-155 152 -51 0
51 -152 -155 0
-152 155 -51 0
51 152 155 0
155 156 0
156 155 -154 0
156 -154 0
-156 154 -155 0
157 -51 0
157 -152 0
51 152 -157 0
157 -53 -158 0
-158 53 -157 0
-53 158 -157 0
157 158 53 0
156 35 158 0
-156 35 -158 0
-156 158 -35 0
156 -158 -35 0
39 37 21 -159 0
37 -39 -21 -159 0
39 -21 -37 -159 0
-39 21 -37 -159 0
-39 -21 -37 159 0
39 21 -37 159 0
37 -39 21 159 0
39 37 -21 159 0
-159 0
33 154 -160 155 0
-160 -33 155 -154 0
154 -160 -155 -33 0
33 -160 -155 -154 0
160 -155 -33 -154 0
160 33 154 -155 0
160 33 155 -154 0
160 154 -33 155 0
-160 0
148 29 -161 147 0
148 -29 -161 -147 0
-29 -148 -161 147 0
29 -148 -161 -147 0
-29 161 -148 -147 0
29 161 -148 147 0
148 29 161 -147 0
148 -29 161 147 0
-161 0
19 -37 0
-19 37 0
23 -104 0
-23 104 0
25 104 105 0
25 -104 -105 0
-105 104 -25 0
105 -104 -25 0
150 144 31 -162 0
144 -31 -150 -162 0
150 -31 -162 -144 0
31 -150 -162 -144 0
162 -31 -150 -144 0
150 162 31 -144 0
162 144 31 -150 0
150 162 144 -31 0
-162 0
